\ENCODING=ISO-8859-1
\Problem name: IloCplex

Minimize
 obj: lambda + x2
Subject To
 c1:  12 x3 >= 0
 c2:  - 12 x3 >= -12
 c3:  c0 - c1 + 12 x7 >= 2
 c4:  - c0 + c1 - 12 x7 >= -10
 c5:  c0 - c2 + 12 x10 >= 1
 c6:  - c0 + c2 - 12 x10 >= -11
 c7:  c0 - c3 + 12 x13 >= 0
 c8:  - c0 + c3 - 12 x13 >= -12
 c9:  c0 - c4 + 12 x16 >= 2
 c10: - c0 + c4 - 12 x16 >= -10
 c11: c0 - c5 + 12 x19 >= 0
 c12: - c0 + c5 - 12 x19 >= -12
 c13: - c0 + c1 + 12 x21 >= 2
 c14: c0 - c1 - 12 x21 >= -10
 c15: 12 x23 >= 0
 c16: - 12 x23 >= -12
 c17: c1 - c2 + 12 x25 >= 2
 c18: - c1 + c2 - 12 x25 >= -10
 c19: c1 - c3 + 12 x27 >= 1
 c20: - c1 + c3 - 12 x27 >= -11
 c21: c1 - c4 + 12 x29 >= 2
 c22: - c1 + c4 - 12 x29 >= -10
 c23: c1 - c5 + 12 x31 >= 0
 c24: - c1 + c5 - 12 x31 >= -12
 c25: - c0 + c2 + 12 x33 >= 1
 c26: c0 - c2 - 12 x33 >= -11
 c27: - c1 + c2 + 12 x35 >= 2
 c28: c1 - c2 - 12 x35 >= -10
 c29: 12 x37 >= 0
 c30: - 12 x37 >= -12
 c31: c2 - c3 + 12 x39 >= 2
 c32: - c2 + c3 - 12 x39 >= -10
 c33: c2 - c4 + 12 x41 >= 1
 c34: - c2 + c4 - 12 x41 >= -11
 c35: c2 - c5 + 12 x43 >= 1
 c36: - c2 + c5 - 12 x43 >= -11
 c37: - c0 + c3 + 12 x45 >= 0
 c38: c0 - c3 - 12 x45 >= -12
 c39: - c1 + c3 + 12 x47 >= 1
 c40: c1 - c3 - 12 x47 >= -11
 c41: - c2 + c3 + 12 x49 >= 2
 c42: c2 - c3 - 12 x49 >= -10
 c43: 12 x51 >= 0
 c44: - 12 x51 >= -12
 c45: c3 - c4 + 12 x53 >= 2
 c46: - c3 + c4 - 12 x53 >= -10
 c47: c3 - c5 + 12 x55 >= 2
 c48: - c3 + c5 - 12 x55 >= -10
 c49: - c0 + c4 + 12 x57 >= 2
 c50: c0 - c4 - 12 x57 >= -10
 c51: - c1 + c4 + 12 x59 >= 2
 c52: c1 - c4 - 12 x59 >= -10
 c53: - c2 + c4 + 12 x61 >= 1
 c54: c2 - c4 - 12 x61 >= -11
 c55: - c3 + c4 + 12 x63 >= 2
 c56: c3 - c4 - 12 x63 >= -10
 c57: 12 x65 >= 0
 c58: - 12 x65 >= -12
 c59: c4 - c5 + 12 x67 >= 1
 c60: - c4 + c5 - 12 x67 >= -11
 c61: - c0 + c5 + 12 x69 >= 0
 c62: c0 - c5 - 12 x69 >= -12
 c63: - c1 + c5 + 12 x71 >= 0
 c64: c1 - c5 - 12 x71 >= -12
 c65: - c2 + c5 + 12 x73 >= 1
 c66: c2 - c5 - 12 x73 >= -11
 c67: - c3 + c5 + 12 x75 >= 2
 c68: c3 - c5 - 12 x75 >= -10
 c69: - c4 + c5 + 12 x77 >= 1
 c70: c4 - c5 - 12 x77 >= -11
 c71: 12 x79 >= 0
 c72: - 12 x79 >= -12
 c73: - lambda + c0 <= 0
 c74: c0 >= 0
 c75: - lambda + c1 <= 0
 c76: c1 >= 0
 c77: - lambda + c2 <= 0
 c78: c2 >= 0
 c79: - lambda + c3 <= 0
 c80: c3 >= 0
 c81: - lambda + c4 <= 0
 c82: c4 >= 0
 c83: - lambda + c5 <= 0
 c84: c5 >= 0
Bounds
      lambda >= 0
      x2 = 0
 0 <= x3 <= 1
      c0 Free
      c1 Free
 0 <= x7 <= 1
      c2 Free
 0 <= x10 <= 1
      c3 Free
 0 <= x13 <= 1
      c4 Free
 0 <= x16 <= 1
      c5 Free
 0 <= x19 <= 1
 0 <= x21 <= 1
 0 <= x23 <= 1
 0 <= x25 <= 1
 0 <= x27 <= 1
 0 <= x29 <= 1
 0 <= x31 <= 1
 0 <= x33 <= 1
 0 <= x35 <= 1
 0 <= x37 <= 1
 0 <= x39 <= 1
 0 <= x41 <= 1
 0 <= x43 <= 1
 0 <= x45 <= 1
 0 <= x47 <= 1
 0 <= x49 <= 1
 0 <= x51 <= 1
 0 <= x53 <= 1
 0 <= x55 <= 1
 0 <= x57 <= 1
 0 <= x59 <= 1
 0 <= x61 <= 1
 0 <= x63 <= 1
 0 <= x65 <= 1
 0 <= x67 <= 1
 0 <= x69 <= 1
 0 <= x71 <= 1
 0 <= x73 <= 1
 0 <= x75 <= 1
 0 <= x77 <= 1
 0 <= x79 <= 1
Binaries
 x3  x7  x10  x13  x16  x19  x21  x23  x25  x27  x29  x31  x33  x35  x37  x39 
 x41  x43  x45  x47  x49  x51  x53  x55  x57  x59  x61  x63  x65  x67  x69 
 x71  x73  x75  x77  x79 
Generals
 lambda 
End
